(set-logic QF_S)
(declare-fun var0 () String)
(declare-fun var1 () String)
(declare-fun var2 () String)
(declare-fun var3 () String)
(declare-fun var4 () Int)
(declare-fun var5 () Int)
(declare-fun var6 () Int)
(declare-fun var7 () Int)
(assert (str.contains (str.replace var0 var1 var2) (str.replace (str.at var3 var4) (str.substr var1 var5 var6) (str.replace var0 var1 var3))))
(assert (> 11 var7))
(assert (str.prefixof (str.at var1 183) (str.substr var3 var5 58)))
(assert (str.contains (str.substr var2 var4 var6) (str.at var1 var4)))
(check-sat)